!aug-cc-PVDZ
%PAL NPROCS 20 END
%CASSCF
nel 1
norb 2
nroots 2
weights 1 1
PTMethod FIC_NEVPT2
rel
  dosoc true
  PrintLevel 2
end
maxiter 500
end
* xyz 0 2
N -0.003357137861363803 -0.5713222029703093 -0.23614861410607785
O 0.0029374956286933483 0.49990692759902056 0.2066300373428181
C 3.418278322039602 -0.006887724244997463 -0.0036390564030929213
H 3.0304253220396022 -0.4820737242449975 0.8928619435969072
H 3.030929322039602 -0.5170517242449973 -0.8809270564030929
H 4.502993322039603 -0.06289072424499746 -0.0022120564030929215
H 3.108672322039602 1.0344272757550026 -0.024241056403092917
*