!aug-cc-PVDZ
%PAL NPROCS 20 END
%CASSCF
nel 1
norb 2
nroots 2
weights 1 1
PTMethod FIC_NEVPT2
rel
  dosoc true
  PrintLevel 2
end
maxiter 500
end
* xyz 0 2
N -0.0015943626977002235 0.4189408180136689 -0.45461252395343793
O 0.0013950673604877161 -0.3665732157619602 0.3977859584592581
C 3.418278322039602 -0.006887724244997463 -0.0036390564030929213
H 3.0304253220396022 -0.4820737242449975 0.8928619435969072
H 3.030929322039602 -0.5170517242449973 -0.8809270564030929
H 4.502993322039603 -0.06289072424499746 -0.0022120564030929215
H 3.108672322039602 1.0344272757550026 -0.024241056403092917
*