!aug-cc-PVDZ
%PAL NPROCS 20 END
%CASSCF
nel 1
norb 2
nroots 2
weights 1 1
PTMethod FIC_NEVPT2
rel
  dosoc true
  PrintLevel 2
end
maxiter 500
end
* xyz 0 2
N -0.0011095616225750456 0.5589248265743257 -0.26417476230244746
O 0.0009708664197531577 -0.4890592232525349 0.2311529170146415
C 3.196056676864679 -0.006439954558320449 -0.0034024820154646097
H 2.808203676864679 -0.4816259545583205 0.8930985179845354
H 2.808707676864679 -0.5166039545583203 -0.8806904820154646
H 4.2807716768646795 -0.06244295455832044 -0.00197548201546461
H 2.886450676864679 1.0348750454416797 -0.024004482015464606
*