!aug-cc-PVDZ
%PAL NPROCS 20 END
%CASSCF
nel 1
norb 2
nroots 2
weights 1 1
PTMethod FIC_NEVPT2
rel
  dosoc true
  PrintLevel 2
end
maxiter 500
end
* xyz 0 2
N 0.04035567345646684 -0.615899987655954 0.03500175354121122
O -0.03531121427440848 0.5389124891989596 -0.030626534348559806
C 3.6404999672145255 -0.007335493931674476 -0.003875630790721231
H 3.2526469672145257 -0.48252149393167454 0.8926253692092788
H 3.2531509672145256 -0.5174994939316744 -0.8811636307907212
H 4.7252149672145265 -0.06333849393167447 -0.002448630790721231
H 3.3308939672145255 1.0339795060683257 -0.02447763079072123
*