!aug-cc-PVDZ
%PAL NPROCS 20 END
%CASSCF
nel 1
norb 2
nroots 2
weights 1 1
PTMethod FIC_NEVPT2
rel
  dosoc true
  PrintLevel 2
end
maxiter 500
end
* xyz 0 2
N -0.002480529007240625 0.06383681341412792 -0.6149025989168228
O 0.0021704628813355416 -0.05585721173736197 0.5380397740522199
C 3.5293891446270638 -0.007111609088336058 -0.003757343596907077
H 3.141536144627064 -0.48229760908833613 0.8927436564030929
H 3.142040144627064 -0.5172756090883359 -0.8810453435969071
H 4.614104144627065 -0.06311460908833605 -0.002330343596907077
H 3.2197831446270637 1.0342033909116641 -0.024359343596907074
*