!aug-cc-PVDZ
%PAL NPROCS 20 END
%CASSCF
nel 1
norb 2
nroots 2
weights 1 1
PTMethod FIC_NEVPT2
rel
  dosoc true
  PrintLevel 2
end
maxiter 500
end
* xyz 0 2
N -0.0021318082228176417 0.2177222781819929 -0.5786008666625319
O 0.0018653321949654363 -0.19050699340924382 0.5062757583297153
C 3.6404999672145255 -0.007335493931674476 -0.003875630790721231
H 3.2526469672145257 -0.48252149393167454 0.8926253692092788
H 3.2531509672145256 -0.5174994939316744 -0.8811636307907212
H 4.7252149672145265 -0.06333849393167447 -0.002448630790721231
H 3.3308939672145255 1.0339795060683257 -0.02447763079072123
*