!aug-cc-PVDZ
%PAL NPROCS 20 END
%CASSCF
nel 1
norb 2
nroots 2
weights 1 1
PTMethod FIC_NEVPT2
rel
  dosoc true
  PrintLevel 2
end
maxiter 500
end
* xyz 0 2
N -0.56560324784522 0.2491923707331261 -0.013513930628495244
O 0.49490284186456746 -0.21804332439148524 0.011824689299933336
C 3.3071674994521407 -0.006663839401658985 -0.0035207692092787636
H 2.919314499452141 -0.48184983940165904 0.8929802307907213
H 2.919818499452141 -0.5168278394016589 -0.8808087692092788
H 4.391882499452142 -0.06266683940165899 -0.0020937692092787637
H 2.9975614994521407 1.034651160598341 -0.02412276920927876
*