!aug-cc-PVDZ
%PAL NPROCS 20 END
%CASSCF
nel 1
norb 2
nroots 2
weights 1 1
PTMethod FIC_NEVPT2
rel
  dosoc true
  PrintLevel 2
end
maxiter 500
end
* xyz 0 2
N 0.19551365804260776 -0.5855474876200577 0.033091497190751745
O -0.17107445078728173 0.5123540516675504 -0.028955060041907774
C 3.0849458542772172 -0.006216069714981972 -0.003284194821650454
H 2.6970928542772175 -0.48140206971498206 0.8932168051783496
H 2.6975968542772173 -0.5163800697149818 -0.8805721948216505
H 4.169660854277218 -0.062219069714981964 -0.0018571948216504542
H 2.775339854277217 1.0350989302850182 -0.023886194821650452
*