!aug-cc-PVDZ
%PAL NPROCS 20 END
%CASSCF
nel 1
norb 2
nroots 2
weights 1 1
PTMethod FIC_NEVPT2
rel
  dosoc true
  PrintLevel 2
end
maxiter 500
end
* xyz 0 2
N -0.6104065140767538 0.09781052388423632 -0.004846330142065459
O 0.5341056998171595 -0.08558420839870681 0.004240538874307282
C 3.0849458542772172 -0.006216069714981972 -0.003284194821650454
H 2.6970928542772175 -0.48140206971498206 0.8932168051783496
H 2.6975968542772173 -0.5163800697149818 -0.8805721948216505
H 4.169660854277218 -0.062219069714981964 -0.0018571948216504542
H 2.775339854277217 1.0350989302850182 -0.023886194821650452
*