!aug-cc-PVDZ
%PAL NPROCS 20 END
%CASSCF
nel 1
norb 2
nroots 2
weights 1 1
PTMethod FIC_NEVPT2
rel
  dosoc true
  PrintLevel 2
end
maxiter 500
end
* xyz 0 2
N 0.6154266246778283 -0.058564247670097234 0.002607001760648449
O -0.5384982965930997 0.05124371671133494 -0.0022811265405673817
C 2.9738350316897555 -0.005992184871643377 -0.003165907627836302
H 2.5859820316897557 -0.48117818487164343 0.8933350923721638
H 2.5864860316897555 -0.5161561848716433 -0.8804539076278363
H 4.058550031689757 -0.06199518487164337 -0.001738907627836302
H 2.6642290316897554 1.0353228151283567 -0.023767907627836298
*