!aug-cc-PVDZ
%PAL NPROCS 20 END
%CASSCF
nel 1
norb 2
nroots 2
weights 1 1
PTMethod FIC_NEVPT2
rel
  dosoc true
  PrintLevel 2
end
maxiter 500
end
* xyz 0 2
N -0.0388622149113699 -0.6159904170322014 0.03510031769608603
O 0.03400443804744872 0.5389916149031763 -0.030712777984075276
C 2.6405025639273703 -0.005320530341627887 -0.0028110460463938313
H 2.2526495639273705 -0.48050653034162794 0.8936899539536062
H 2.2531535639273708 -0.5154845303416278 -0.8800990460463939
H 3.7252175639273712 -0.06132353034162788 -0.0013840460463938314
H 2.3308965639273707 1.0359944696583723 -0.02341304604639383
*