!aug-cc-PVDZ
%PAL NPROCS 20 END
%CASSCF
nel 1
norb 2
nroots 2
weights 1 1
PTMethod FIC_NEVPT2
rel
  dosoc true
  PrintLevel 2
end
maxiter 500
end
* xyz 0 2
N -0.0012606579734604942 0.5205541116865026 -0.3334791229948872
O 0.0011030757267778766 -0.45548484772568976 0.29179423262052623
C 2.6405025639273703 -0.005320530341627887 -0.0028110460463938313
H 2.2526495639273705 -0.48050653034162794 0.8936899539536062
H 2.2531535639273708 -0.5154845303416278 -0.8800990460463939
H 3.7252175639273712 -0.06132353034162788 -0.0013840460463938314
H 2.3308965639273707 1.0359944696583723 -0.02341304604639383
*