!aug-cc-PVDZ
%PAL NPROCS 20 END
%CASSCF
nel 1
norb 2
nroots 2
weights 1 1
PTMethod FIC_NEVPT2
rel
  dosoc true
  PrintLevel 2
end
maxiter 500
end
* xyz 0 2
N -0.0009135507521573713 0.20928919689658348 0.5817075686400301
O 0.0007993569081376443 -0.18312804728451054 -0.5089941225600263
C 2.6405025639273703 -0.005320530341627887 -0.0028110460463938313
H 2.2526495639273705 -0.48050653034162794 0.8936899539536062
H 2.2531535639273708 -0.5154845303416278 -0.8800990460463939
H 3.7252175639273712 -0.06132353034162788 -0.0013840460463938314
H 2.3308965639273707 1.0359944696583723 -0.02341304604639383
*