!aug-cc-PVDZ
%PAL NPROCS 20 END
%CASSCF
nel 1
norb 2
nroots 2
weights 1 1
PTMethod FIC_NEVPT2
rel
  dosoc true
  PrintLevel 2
end
maxiter 500
end
* xyz 0 2
N -0.11744198678476597 -0.6059663007907542 0.03462253560479178
O 0.10276173843667022 0.5302205131919099 -0.030294718654192802
C 3.5293891446270638 -0.007111609088336058 -0.003757343596907077
H 3.141536144627064 -0.48229760908833613 0.8927436564030929
H 3.142040144627064 -0.5172756090883359 -0.8810453435969071
H 4.614104144627065 -0.06311460908833605 -0.002330343596907077
H 3.2197831446270637 1.0342033909116641 -0.024359343596907074
*