!aug-cc-PVDZ
%PAL NPROCS 20 END
%CASSCF
nel 1
norb 2
nroots 2
weights 1 1
PTMethod FIC_NEVPT2
rel
  dosoc true
  PrintLevel 2
end
maxiter 500
end
* xyz 0 2
N 0.5804303577427841 -0.21250163440022835 0.01140846674642515
O -0.507876563024936 0.18593893010019977 -0.009982408403121997
C 3.196056676864679 -0.006439954558320449 -0.0034024820154646097
H 2.808203676864679 -0.4816259545583205 0.8930985179845354
H 2.808707676864679 -0.5166039545583203 -0.8806904820154646
H 4.2807716768646795 -0.06244295455832044 -0.00197548201546461
H 2.886450676864679 1.0348750454416797 -0.024004482015464606
*