!aug-cc-PVDZ
%PAL NPROCS 20 END
%CASSCF
nel 1
norb 2
nroots 2
weights 1 1
PTMethod FIC_NEVPT2
rel
  dosoc true
  PrintLevel 2
end
maxiter 500
end
* xyz 0 2
N -0.0011883938517060232 0.05489233241500664 0.6157693703715561
O 0.0010398446202427144 -0.04803079086313081 -0.5387981990751116
C 2.7516133865148324 -0.005544415184966364 -0.002929333240207989
H 2.3637603865148327 -0.48073041518496645 0.893571666759792
H 2.364264386514832 -0.5157084151849662 -0.880217333240208
H 3.8363283865148334 -0.061547415184966356 -0.001502333240207989
H 2.442007386514832 1.0357705848150338 -0.023531333240207987
*