!aug-cc-PVDZ
%PAL NPROCS 20 END
%CASSCF
nel 1
norb 2
nroots 2
weights 1 1
PTMethod FIC_NEVPT2
rel
  dosoc true
  PrintLevel 2
end
maxiter 500
end
* xyz 0 2
N -0.0008007016668633388 0.2819577630955502 0.5501687710445616
O 0.000700613958505574 -0.24671304270860644 -0.4813976746639913
C 2.9738350316897555 -0.005992184871643377 -0.003165907627836302
H 2.5859820316897557 -0.48117818487164343 0.8933350923721638
H 2.5864860316897555 -0.5161561848716433 -0.8804539076278363
H 4.058550031689757 -0.06199518487164337 -0.001738907627836302
H 2.6642290316897554 1.0353228151283567 -0.023767907627836298
*