!RHF EOM-CCSD aug-cc-PVTZ TightSCF
%PAL NPROCS 20 END
%mdci
nroots 1
end
* xyz 0 2
N -0.0018671641783072792 -0.25433820981870303 0.563467023569115
O 0.001633768656018869 0.22254593359136512 -0.4930336456229757
C 3.473833733333333 -0.006999666666666642 -0.0036981999999999974
H 3.0859807333333333 -0.4821856666666667 0.8928028
H 3.086484733333333 -0.5171636666666666 -0.8809862
H 4.558548733333334 -0.06300266666666664 -0.0022711999999999975
H 3.164227733333333 1.0343153333333335 -0.024299999999999995
*