!RHF EOM-CCSD aug-cc-PVTZ TightSCF
%PAL NPROCS 20 END
%mdci
nroots 1
end
* xyz 0 2
N -0.003111682400741018 -0.6136869374552423 0.07459998763492955
O 0.00272272210064839 0.5369760702733368 -0.06527498918056333
C 3.473833733333333 -0.006999666666666642 -0.0036981999999999974
H 3.0859807333333333 -0.4821856666666667 0.8928028
H 3.086484733333333 -0.5171636666666666 -0.8809862
H 4.558548733333334 -0.06300266666666664 -0.0022711999999999975
H 3.164227733333333 1.0343153333333335 -0.024299999999999995
*