!aug-cc-PVDZ
%PAL NPROCS 20 END
%CASSCF
nel 1
norb 2
nroots 2
weights 1 1
PTMethod FIC_NEVPT2
rel
  dosoc true
  PrintLevel 2
end
maxiter 500
end
* xyz 0 2
N 0.5282711594410768 0.32056228376634677 -0.01886537184827061
O -0.4622372645109421 -0.2804919982955534 0.016507200367236782
C 2.8627242091022937 -0.00576830002830496 -0.0030476204340221446
H 2.474871209102294 -0.480954300028305 0.8934533795659779
H 2.4753752091022942 -0.5159323000283048 -0.8803356204340221
H 3.9474392091022947 -0.06177130002830495 -0.0016206204340221447
H 2.553118209102294 1.0355466999716951 -0.02364962043402214
*