!aug-cc-PVDZ
%PAL NPROCS 20 END
%CASSCF
nel 1
norb 2
nroots 2
weights 1 1
PTMethod FIC_NEVPT2
rel
  dosoc true
  PrintLevel 2
end
maxiter 500
end
* xyz 0 2
N -0.07979725012777006 0.6120557768191632 -0.03473647736926897
O 0.06982259386179875 -0.5355488047167678 0.030394417698110358
C 2.8627242091022937 -0.00576830002830496 -0.0030476204340221446
H 2.474871209102294 -0.480954300028305 0.8934533795659779
H 2.4753752091022942 -0.5159323000283048 -0.8803356204340221
H 3.9474392091022947 -0.06177130002830495 -0.0016206204340221447
H 2.553118209102294 1.0355466999716951 -0.02364962043402214
*